72 300 202 213 249 248 200 218 227 201 218 248 208 230 242 216 234 218 211 201 220 221 221 213 242 201 239 203 248 228 238 236 226 240 223 225 212 249 217 239 224 235 210 232 240 201 222 248 219 207 250 214 202 245 201 218 246 214 222 217 242 209 202 243 223 250 242 235 248 208 248 247 217 207 